109
0 81 12 60 88 47 46 58 31 103 
61 92 66 90 2 35 98 94 41 24 
78 6 15 84 14 16 91 73 26 69 
75 104 19 87 13 33 22 10 37 96 
23 11 34 25 1 49 65 85 56 48 
54 95 74 43 68 108 40 77 79 28 
9 72 62 29 102 44 52 53 83 59 
5 4 105 82 8 101 27 99 86 21 
38 71 67 93 18 57 39 55 42 70 
63 76 3 32 50 20 36 7 106 100 
80 45 17 64 89 51 30 97 107 
